\ LP format - for model browsing. Use MPS format to capture full model detail.
Maximize
  7 x_1 + 6 x_2 + 6 x_3 + x_4 + 9 x_5 + 5 x_6 + 3 x_7 + x_8 + 6 x_9
   + 10 x_10 + 3 x_11 + 10 x_12 + 9 x_13 + 7 x_14 + 3 x_15
Subject To
 C_1: 10 x_3 + 5 x_6 + 4 x_8 + 4 x_9 + 2 x_15 <= 12
 C_2: 4 x_5 + 7 x_11 + 9 x_13 + 3 x_15 <= 11
 C_3: 9 x_1 + 4 x_3 + 2 x_4 + 2 x_5 + 7 x_6 + 8 x_8 + 4 x_9 + 4 x_10
   + 4 x_14 <= 22
 C_4: 8 x_2 + 6 x_11 + 10 x_13 <= 12
 C_5: 2 x_1 + 5 x_2 + 9 x_4 + 3 x_5 + 8 x_7 + 10 x_8 + x_10 + 9 x_13 <= 23
 C_6: 10 x_1 + 2 x_2 + 8 x_3 + 4 x_4 + 8 x_6 + 10 x_7 + 7 x_8 + 6 x_10
   + 8 x_15 <= 31
 C_7: x_5 + 5 x_6 + 6 x_11 + 9 x_12 + 7 x_14 + x_15 <= 14
 C_8: 4 x_1 + 10 x_2 + 3 x_5 + 10 x_7 + 7 x_15 <= 17
 C_9: 3 x_1 + 2 x_4 + 8 x_6 + 4 x_8 + 5 x_10 + 6 x_11 + x_12 + 10 x_14
   + 4 x_15 <= 21
 C_10: 4 x_1 + 9 x_2 + 2 x_3 + 3 x_4 + 7 x_9 + 10 x_10 + 5 x_11 + 10 x_12
   + 6 x_14 + 4 x_15 <= 30
Bounds
Binaries
 x_1 x_2 x_3 x_4 x_5 x_6 x_7 x_8 x_9 x_10 x_11 x_12 x_13 x_14 x_15
End
